
Gurobi 9.5.0 (win64) logging started Fri Jun  3 12:55:34 2022

Set parameter LogFile to value "../results/logs/log_socfb-Syracuse56_46_250_2022_06_03_11_04.log"
Set parameter LazyConstraints to value 1
